2907.0 72103.0 
2801.0 73812.0 
2871.0 72338.0 
2789.0 74914.0 
2900.0 72295.0 
2837.0 72691.0 
2825.0 73033.0 
2805.0 73656.0 
2855.0 72569.0 
2859.0 72483.0 
2790.0 74500.0 
2803.0 73665.0 
2902.0 72214.0 
2868.0 72444.0 
2795.0 74036.0 
2880.0 72315.0 
2911.0 72087.0 
2808.0 73085.0 
2841.0 72574.0 
